0 0 0 0
0 1 0 0
0 2 0 0
0 3 0 0
0 4 0 5
0 5 0 5
0 6 0 5
0 7 0 5
0 8 0 8
0 9 0 6
0 10 0 8
0 11 0 14
0 12 0 7
0 13 0 7
0 14 0 7
0 15 2 13
0 16 2 6
0 17 0 10
0 18 0 6
0 19 0 11
0 20 0 19
0 21 2 17
0 22 2 16
0 23 0 11
0 24 0 17
0 25 0 21
0 26 0 26
0 27 0 23
0 28 0 27
0 29 0 26
0 30 2 21
0 31 0 29
